POSCAR file written by Ovito 3.0.0-dev35
   1.00000000000000     
     9.1066015824867996   -0.0189810279688920   -0.0104235794899798
    -0.0186940924293233    9.1620645172851489   -0.1006987534977854
    -0.0102079040684223   -0.0949500033350121    8.6877891319428517
   Ti   V    Nb   Mo   C 
     8     8     8     8    32
Direct
  0.5543299914775560  0.6141109342073376  0.4386922477391875
  0.3907560234738826  0.7732463292349917  0.6928812371275535
  0.3984326084305397  0.4513593274646435  0.6830697253979711
  0.7345291289775302  0.4359712057022250  0.6783512547491497
  0.7183571026012239  0.7801921260604752  0.1901991081307839
  0.5501127320126659  0.9469746559881461  0.4311058009188415
  0.3791406508934733  0.7829760542091024  0.1889177119382289
  0.2209237266563970  0.9562620264175618  0.4428883012490227
  0.5322859845845754  0.2923454926726593  0.4176556361604647
  0.3879362470386237  0.1045840825951403  0.1982371352799299
  0.8868001453721629  0.9498167734189479  0.4209645532596007
  0.8979596456503182  0.2638327286017499  0.9441492676993029
  0.0564029625344911  0.7804062193363287  0.2115032059453684
  0.8701351810541704  0.2769158708262918  0.4241348761686137
  0.7257947267821003  0.7577601704031349  0.6928989698860625
  0.8705017008986602  0.9521846788159970  0.9553661678015926
  0.7212824274154203  0.4424663963490122  0.1890669873299666
  0.2275595263527954  0.6051113767988314  0.9391503493289328
  0.7162583327533009  0.1149950821307515  0.1881232096811740
  0.8779885726116432  0.6126803656633312  0.9399543238744875
  0.8851092928009484  0.6236281600000249  0.4404709778840794
  0.5582129036622331  0.2802461447656363  0.9320327920893164
  0.0561823068583959  0.4552591726265957  0.6962088133589422
  0.3851172329052246  0.4489319997378461  0.1797721519702303
  0.5574386747363024  0.6205302760910083  0.9314507789135711
  0.1969725121456859  0.9489662372472779  0.9533663808619991
  0.2298109483448869  0.6179838100238623  0.4391275231885410
  0.0484235124935867  0.1115072193844658  0.1921400288919863
  0.0497758338563861  0.4533916857388519  0.1718670207996605
  0.5465273507631849  0.9450746413752039  0.9410249462944930
  0.0711384282250543  0.7823235229727153  0.6835190797434449
  0.2147439457753915  0.2782480659314883  0.4302036986474322
  0.3787487459050130  0.1243538557381881  0.4240687069597036
  0.3816845153549029  0.4473639617491708  0.4356503662686266
  0.7245513140715707  0.1059648887873744  0.9356669391170873
  0.3871158026276743  0.7755699881669336  0.9440839699098562
  0.0529608572490751  0.4372081306495516  0.9386940665268266
  0.7214643244110117  0.4433837868189539  0.4362247807633250
  0.0435230013293553  0.1135858937626535  0.4759090655510888
  0.3638597953635050 -0.0003546850039332  0.7902240528474849
  0.7225838272010188  0.7887865819081528  0.4496922450703953
  0.5416373248953353  0.2734443837074166  0.1822104101934222
  0.5444267275027439  0.9473463648011190  0.1899519449847300
  0.2145074364942140  0.6183535315620508  0.1911725736962892
  0.7223723034726293  0.1108611713365077  0.4737325787817329
  0.3885013476936744  0.7842128106361420  0.4455637956417893
  0.8921196027882605  0.6186554797171085  0.1885204459778057
  0.8937041463751428  0.2807994067604396  0.1892112493632784
  0.7204056921091481  0.7912295964451935  0.9315282208784227
  0.0438267108884058  0.1042641316730394  0.9454026156693751
  0.2279141022354973  0.6169491577032536  0.6861626106254869
  0.5581520920647189  0.2656887938350877  0.6733601555851323
  0.7235062681984646  0.4385211530987566  0.9311322036674251
  0.5493827299113795  0.6140902192156694  0.1869840637596573
  0.2169293649157846  0.9506482922699495  0.1943162074087771
  0.5627569235972809  0.6105839991219282  0.6858002402485431
  0.9098005191504321  0.2703848506740157  0.6850156514745807
  0.2425580372570578  0.9562008667715969  0.7061445904582038
  0.3842429745048951  0.4358872305838434  0.9255182570329776
  0.0270635296736685  0.2238741638821429  0.5921513331909072
  0.8914028690781565  0.6190929510212614  0.6906287532016715
  0.8892759287771100  0.9434032733535000  0.1900448624604320
  0.6460891184451184  0.1778509546992114  0.5907707999231073
  0.0538714869965792  0.7934551718928246  0.4438296896517281
 
  0.00000000E+00  0.00000000E+00  0.00000000E+00
  0.00000000E+00  0.00000000E+00  0.00000000E+00
  0.00000000E+00  0.00000000E+00  0.00000000E+00
  0.00000000E+00  0.00000000E+00  0.00000000E+00
  0.00000000E+00  0.00000000E+00  0.00000000E+00
  0.00000000E+00  0.00000000E+00  0.00000000E+00
  0.00000000E+00  0.00000000E+00  0.00000000E+00
  0.00000000E+00  0.00000000E+00  0.00000000E+00
  0.00000000E+00  0.00000000E+00  0.00000000E+00
  0.00000000E+00  0.00000000E+00  0.00000000E+00
  0.00000000E+00  0.00000000E+00  0.00000000E+00
  0.00000000E+00  0.00000000E+00  0.00000000E+00
  0.00000000E+00  0.00000000E+00  0.00000000E+00
  0.00000000E+00  0.00000000E+00  0.00000000E+00
  0.00000000E+00  0.00000000E+00  0.00000000E+00
  0.00000000E+00  0.00000000E+00  0.00000000E+00
  0.00000000E+00  0.00000000E+00  0.00000000E+00
  0.00000000E+00  0.00000000E+00  0.00000000E+00
  0.00000000E+00  0.00000000E+00  0.00000000E+00
  0.00000000E+00  0.00000000E+00  0.00000000E+00
  0.00000000E+00  0.00000000E+00  0.00000000E+00
  0.00000000E+00  0.00000000E+00  0.00000000E+00
  0.00000000E+00  0.00000000E+00  0.00000000E+00
  0.00000000E+00  0.00000000E+00  0.00000000E+00
  0.00000000E+00  0.00000000E+00  0.00000000E+00
  0.00000000E+00  0.00000000E+00  0.00000000E+00
  0.00000000E+00  0.00000000E+00  0.00000000E+00
  0.00000000E+00  0.00000000E+00  0.00000000E+00
  0.00000000E+00  0.00000000E+00  0.00000000E+00
  0.00000000E+00  0.00000000E+00  0.00000000E+00
  0.00000000E+00  0.00000000E+00  0.00000000E+00
  0.00000000E+00  0.00000000E+00  0.00000000E+00
  0.00000000E+00  0.00000000E+00  0.00000000E+00
  0.00000000E+00  0.00000000E+00  0.00000000E+00
  0.00000000E+00  0.00000000E+00  0.00000000E+00
  0.00000000E+00  0.00000000E+00  0.00000000E+00
  0.00000000E+00  0.00000000E+00  0.00000000E+00
  0.00000000E+00  0.00000000E+00  0.00000000E+00
  0.00000000E+00  0.00000000E+00  0.00000000E+00
  0.00000000E+00  0.00000000E+00  0.00000000E+00
  0.00000000E+00  0.00000000E+00  0.00000000E+00
  0.00000000E+00  0.00000000E+00  0.00000000E+00
  0.00000000E+00  0.00000000E+00  0.00000000E+00
  0.00000000E+00  0.00000000E+00  0.00000000E+00
  0.00000000E+00  0.00000000E+00  0.00000000E+00
  0.00000000E+00  0.00000000E+00  0.00000000E+00
  0.00000000E+00  0.00000000E+00  0.00000000E+00
  0.00000000E+00  0.00000000E+00  0.00000000E+00
  0.00000000E+00  0.00000000E+00  0.00000000E+00
  0.00000000E+00  0.00000000E+00  0.00000000E+00
  0.00000000E+00  0.00000000E+00  0.00000000E+00
  0.00000000E+00  0.00000000E+00  0.00000000E+00
  0.00000000E+00  0.00000000E+00  0.00000000E+00
  0.00000000E+00  0.00000000E+00  0.00000000E+00
  0.00000000E+00  0.00000000E+00  0.00000000E+00
  0.00000000E+00  0.00000000E+00  0.00000000E+00
  0.00000000E+00  0.00000000E+00  0.00000000E+00
  0.00000000E+00  0.00000000E+00  0.00000000E+00
  0.00000000E+00  0.00000000E+00  0.00000000E+00
  0.00000000E+00  0.00000000E+00  0.00000000E+00
  0.00000000E+00  0.00000000E+00  0.00000000E+00
  0.00000000E+00  0.00000000E+00  0.00000000E+00
  0.00000000E+00  0.00000000E+00  0.00000000E+00
  0.00000000E+00  0.00000000E+00  0.00000000E+00
